NAME          
ROWS
 N  OBJ
 L  c1
 L  c2
 L  c3
COLUMNS
    MARKER    'MARKER'                 'INTORG'
    x[1]      c1        992
    x[1]      c2        183
    x[1]      c3        39
    x[1]      OBJ       -603
    x[2]      c1        15
    x[2]      c2        449
    x[2]      c3        974
    x[2]      OBJ       -423
    x[3]      c1        719
    x[3]      c2        228
    x[3]      c3        62
    x[3]      OBJ       -784
    x[4]      c1        218
    x[4]      c2        487
    x[4]      c3        576
    x[4]      OBJ       -251
    x[5]      c1        180
    x[5]      c2        111
    x[5]      c3        163
    x[5]      OBJ       -644
    x[6]      c1        625
    x[6]      c2        901
    x[6]      c3        56
    x[6]      OBJ       -326
    x[7]      c1        319
    x[7]      c2        945
    x[7]      c3        480
    x[7]      OBJ       -228
    x[8]      c1        725
    x[8]      c2        566
    x[8]      c3        125
    x[8]      OBJ       -298
    x[9]      c1        112
    x[9]      c2        112
    x[9]      c3        963
    x[9]      OBJ       -329
    x[10]     c1        482
    x[10]     c2        423
    x[10]     c3        748
    x[10]     OBJ       -412
    x[11]     c1        766
    x[11]     c2        777
    x[11]     c3        624
    x[11]     OBJ       -849
    x[12]     c1        300
    x[12]     c2        167
    x[12]     c3        185
    x[12]     OBJ       -414
    x[13]     c1        416
    x[13]     c2        677
    x[13]     c3        531
    x[13]     OBJ       -152
    x[14]     c1        88
    x[14]     c2        441
    x[14]     c3        788
    x[14]     OBJ       -294
    x[15]     c1        951
    x[15]     c2        75
    x[15]     c3        842
    x[15]     OBJ       -119
    x[16]     c1        568
    x[16]     c2        224
    x[16]     c3        123
    x[16]     OBJ       -401
    x[17]     c1        4
    x[17]     c2        207
    x[17]     c3        489
    x[17]     OBJ       -967
    x[18]     c1        781
    x[18]     c2        766
    x[18]     c3        642
    x[18]     OBJ       -599
    x[19]     c1        477
    x[19]     c2        323
    x[19]     c3        218
    x[19]     OBJ       -152
    x[20]     c1        998
    x[20]     c2        449
    x[20]     c3        856
    x[20]     OBJ       -794
    x[21]     c1        383
    x[21]     c2        654
    x[21]     c3        829
    x[21]     OBJ       -652
    x[22]     c1        923
    x[22]     c2        2
    x[22]     c3        956
    x[22]     OBJ       -66
    x[23]     c1        413
    x[23]     c2        740
    x[23]     c3        290
    x[23]     OBJ       -715
    x[24]     c1        292
    x[24]     c2        534
    x[24]     c3        91
    x[24]     OBJ       -973
    x[25]     c1        926
    x[25]     c2        928
    x[25]     c3        192
    x[25]     OBJ       -576
RHS
    rhs       c1        6336
    rhs       c2        5684
    rhs       c3        5921
RANGES
BOUNDS
 BV bounds    x[1]
 BV bounds    x[2]
 BV bounds    x[3]
 BV bounds    x[4]
 BV bounds    x[5]
 BV bounds    x[6]
 BV bounds    x[7]
 BV bounds    x[8]
 BV bounds    x[9]
 BV bounds    x[10]
 BV bounds    x[11]
 BV bounds    x[12]
 BV bounds    x[13]
 BV bounds    x[14]
 BV bounds    x[15]
 BV bounds    x[16]
 BV bounds    x[17]
 BV bounds    x[18]
 BV bounds    x[19]
 BV bounds    x[20]
 BV bounds    x[21]
 BV bounds    x[22]
 BV bounds    x[23]
 BV bounds    x[24]
 BV bounds    x[25]
ENDATA
